unsat
(:added-eqs                       492312
 :arith-eq-adapter                3937
 :arith-bound-propagations-lp     1038
 :arith-conflicts                 2856
 :arith-diseq                     4802
 :arith-fixed-eqs                 26189
 :arith-gcd-calls                 4
 :arith-grobner-calls             294
 :arith-grobner-conflicts         79
 :arith-horner-calls              68
 :arith-horner-conflicts          7
 :arith-horner-cross-nested-forms 33048
 :arith-lower                     165899
 :arith-make-feasible             37927
 :arith-max-columns               7938
 :arith-max-rows                  2794
 :arith-nla-add-bounds            218
 :arith-nla-lemmas                1357
 :arith-nla-propagate-bounds      1117
 :arith-nla-propagate-eq          39478
 :arith-nra-calls                 23
 :arith-offset-eqs                109447
 :arith-patches                   4
 :arith-patches-success           4
 :arith-upper                     242272
 :binary-propagations             900763
 :cnf-encoding-aux-vars           84
 :conflicts                       818
 :decisions                       859648
 :del-clause                      2533
 :elim-unconstrained              1187
 :final-checks                    711
 :max-memory                      145.32
 :memory                          100.70
 :minimized-lits                  548
 :mk-bool-var                     22238
 :mk-clause                       7104
 :mk-clause-binary                117228
 :nlsat-conflicts                 78766
 :nlsat-decisions                 352718
 :nlsat-propagations              1132842
 :nlsat-stages                    66590
 :num-allocs                      12030675004.00
 :num-checks                      2
 :propagations                    1013441
 :restarts                        6
 :rlimit-count                    20679547
 :solve-eqs-elim-vars             703
 :solve-eqs-steps                 3675
 :time                            15.96
 :total-time                      16.00)
